(set-info :Origin "This instance was generated by: BanditFuzz-- an RL fuzzer for SMT solvers" )
(set-info :Author "Joe Scott, Fed Mora, Vijay Ganesh" )
(set-info :Contact "Joe Scott, joseph.scott@uwaterloo.ca")
(set-logic QF_BV)
(declare-const bool_0 Bool)
(declare-const bool_1 Bool)
(declare-const bool_2 Bool)
(declare-const bool_3 Bool)
(declare-const bool_4 Bool)
(declare-const bv_0 (_ BitVec 32))
(declare-const bv_1 (_ BitVec 32))
(declare-const bv_2 (_ BitVec 32))
(declare-const bv_3 (_ BitVec 32))
(declare-const bv_4 (_ BitVec 32))
(assert (bvuge (bvurem (bvshl #x95e41777  #xee8e8355 ) (bvurem bv_2 #xac0468bd )) (bvxnor (bvurem #xdbfa9b3f  bv_0) (bvnor #x928afd67  bv_1))))
(assert (=> (not (bvuge bv_2 bv_3)) (bvuge (bvmul bv_0 #x295900b7 ) (bvmul bv_1 bv_3))))
(assert (=> (bvugt (bvand bv_0 bv_4) (bvnor bv_1 #xff468374 )) (bvsle (bvxor bv_1 #x3bd68d78 ) (bvsdiv #xb77f5025  bv_4))))
(assert (bvuge (bvadd (bvsmod #xf9f38cf1  #xc1259fbe ) (bvnand #xd6446789  bv_1)) (bvsmod (bvmul #x7e29dbd5  bv_0) (bvnor bv_4 bv_3))))
(assert (=> (bvule (bvxnor #x0ec713a0  #xe67f7fba ) (bvshl bv_0 #xc95ec421 )) (bvugt (bvsmod bv_2 bv_3) (bvxor #xb45d116a  #xddd8d743 ))))
(check-sat)
(exit)
